
Gurobi 6.5.0 (linux64) logging started Fri Feb 12 23:08:09 2016


Gurobi Optimizer version 6.5.0 build v6.5.0rc1 (linux64)
Copyright (c) 2015, Gurobi Optimization, Inc.

Read LP format model from file sample.lp
Reading time = 0.00 seconds
(null): 0 rows, 0 columns, 0 nonzeros
Optimize a model with 0 rows, 0 columns and 0 nonzeros
Coefficient statistics:
  Matrix range    [0e+00, 0e+00]
  Objective range [0e+00, 0e+00]
  Bounds range    [0e+00, 0e+00]
  RHS range       [0e+00, 0e+00]
Presolve time: 0.00s
Presolve: All rows and columns removed
Iteration    Objective       Primal Inf.    Dual Inf.      Time
       0    0.0000000e+00   0.000000e+00   0.000000e+00      0s

Solved in 0 iterations and 0.00 seconds
Optimal objective  0.000000000e+00

Gurobi 6.5.0 (linux64) logging started Fri Feb 12 23:08:38 2016


Gurobi Optimizer version 6.5.0 build v6.5.0rc1 (linux64)
Copyright (c) 2015, Gurobi Optimization, Inc.

Read LP format model from file sample.lp
Reading time = 0.00 seconds
(null): 0 rows, 0 columns, 0 nonzeros
Optimize a model with 0 rows, 0 columns and 0 nonzeros
Coefficient statistics:
  Matrix range    [0e+00, 0e+00]
  Objective range [0e+00, 0e+00]
  Bounds range    [0e+00, 0e+00]
  RHS range       [0e+00, 0e+00]
Presolve time: 0.00s
Presolve: All rows and columns removed
Iteration    Objective       Primal Inf.    Dual Inf.      Time
       0    0.0000000e+00   0.000000e+00   0.000000e+00      0s

Solved in 0 iterations and 0.00 seconds
Optimal objective  0.000000000e+00

Wrote result file 'sample.sol'


Gurobi 6.5.0 (linux64) logging started Fri Feb 12 23:09:56 2016


Gurobi Optimizer version 6.5.0 build v6.5.0rc1 (linux64)
Copyright (c) 2015, Gurobi Optimization, Inc.

Read LP format model from file sample.lp
Reading time = 0.00 seconds
(null): 4 rows, 9 columns, 16 nonzeros
Optimize a model with 4 rows, 9 columns and 16 nonzeros
Coefficient statistics:
  Matrix range    [6e-02, 7e+00]
  Objective range [1e-02, 1e+00]
  Bounds range    [5e+01, 1e+03]
  RHS range       [0e+00, 0e+00]
Found heuristic solution: objective -0
Presolve removed 1 rows and 5 columns
Presolve time: 0.05s
Presolved: 3 rows, 4 columns, 9 nonzeros
Variable types: 0 continuous, 4 integer (0 binary)

Root relaxation: objective 1.134615e+02, 4 iterations, 0.00 seconds

    Nodes    |    Current Node    |     Objective Bounds      |     Work
 Expl Unexpl |  Obj  Depth IntInf | Incumbent    BestBd   Gap | It/Node Time

     0     0  113.46154    0    1   -0.00000  113.46154      -     -    0s
H    0     0                     113.4500000  113.46154  0.01%     -    0s

Explored 0 nodes (4 simplex iterations) in 0.11 seconds
Thread count was 4 (of 4 available processors)

Optimal solution found (tolerance 1.00e-04)
Best objective 1.134500000000e+02, best bound 1.134500000000e+02, gap 0.0%

Wrote result file 'sample.sol'


Gurobi 6.5.0 (linux64) logging started Fri Feb 12 23:30:30 2016


Gurobi Optimizer version 6.5.0 build v6.5.0rc1 (linux64)
Copyright (c) 2015, Gurobi Optimization, Inc.


ERROR 10012: Unknown file type for file 'Tsp.java'


Gurobi 6.5.0 (linux64) logging started Fri Feb 12 23:32:23 2016

